1
1000
249
498 1
494 1
493 1
492 1
492 1
490 1
489 1
487 1
484 1
482 1
480 1
477 1
472 1
471 1
470 1
468 1
465 1
464 1
462 1
460 1
460 1
456 1
454 1
443 1
442 1
441 1
440 1
436 1
436 1
435 1
435 1
435 1
431 1
427 1
427 1
426 1
424 1
417 1
417 1
416 1
415 1
415 1
412 1
407 1
402 1
402 1
402 1
400 1
399 1
398 1
398 1
394 1
390 1
386 1
386 1
385 1
385 1
385 1
384 1
381 1
380 1
379 1
378 1
378 1
377 1
377 1
376 1
375 1
374 1
372 1
372 1
368 1
367 1
366 1
366 1
366 1
366 1
365 1
365 1
363 1
362 1
362 1
361 1
359 1
359 1
358 1
358 1
357 1
357 1
355 1
355 1
354 1
353 1
352 1
352 1
352 1
352 1
352 1
350 1
349 1
349 1
347 1
343 1
342 1
341 1
340 1
339 1
336 1
335 1
333 1
332 1
331 1
330 1
328 1
327 1
326 1
326 1
325 1
324 1
324 1
323 1
319 1
317 1
316 1
315 1
314 1
313 1
312 1
311 1
309 1
309 1
309 1
309 1
308 1
306 1
305 1
303 1
302 1
301 1
301 1
300 1
297 1
297 1
296 1
296 1
296 1
296 1
295 1
295 1
292 1
291 1
291 1
290 1
290 1
289 1
288 1
288 1
288 1
287 1
286 1
285 1
285 1
283 1
282 1
282 1
282 1
281 1
281 1
280 1
279 1
278 1
277 1
277 1
277 1
276 1
276 1
275 1
275 1
275 1
275 1
274 1
274 1
274 1
273 1
273 1
271 1
269 1
269 1
268 1
268 1
268 1
268 1
268 1
268 1
266 1
264 1
264 1
263 1
263 1
263 1
263 1
263 1
262 1
262 1
261 1
261 1
261 1
261 1
261 1
260 1
260 1
260 1
260 1
260 1
260 1
260 1
259 1
259 1
258 1
258 1
258 1
258 1
258 1
257 1
257 1
257 1
256 1
256 1
256 1
256 1
256 1
255 1
255 1
254 1
254 1
254 1
253 1
253 1
252 1
252 1
252 1
251 1
251 1
250 1
250 1
250 1
250 1
250 1
250 1
